20  5
  0  52  1  85  2  39  3  44  4  78
  0  74  1  77  2  26  3  84  4  63
  0  50  1  63  2  74  3  72  4  54
  0  61  1  36  2  34  3  89  4  11
  0  57  1  73  2  48  3  85  4  54
  0  21  1  46  2  45  3  70  4  22
  0  32  1  3  2  56  3  29  4  21
  0  79  1  52  2  4  3  67  4  65
  0  22  1  59  2  56  3  50  4  96
  0  21  1  68  2  86  3  59  4  92
  0  78  1  20  2  56  3  41  4  64
  0  79  1  14  2  57  3  45  4  12
  0  15  1  35  2  81  3  31  4  41
  0  85  1  98  2  72  3  8  4  90
  0  21  1  11  2  30  3  39  4  23
  0  68  1  3  2  15  3  43  4  8
  0  87  1  28  2  10  3  14  4  35
  0  8  1  68  2  90  3  79  4  97
  0  31  1  28  2  99  3  24  4  68
  0  18  1  22  2  15  3  17  4  28
